c --- [ banner ] -------------------------------------------------------------
c 
c CaDiCaL Radically Simplified CDCL SAT Solver
c Copyright (c) 2016-2021 A. Biere, M. Fleury, N. Froleyks
c 
c Version 1.5.2 a5f15211db36c3956764e18194dd5bd63bf3b5e6
c g++ (GCC) 9.3.0 -Wall -Wextra -O3 -DNDEBUG
c Fri Oct 21 01:27:37 EDT 2022 Linux gra-login3 3.10.0-1160.66.1.el7.x86_64 x86_64
c 
c --- [ limit ] --------------------------------------------------------------
c 
c setting conflict limit to 200000 conflicts (due to '200000')
c 
c --- [ parsing input ] ------------------------------------------------------
c 
c reading DIMACS file from '33.cubes2570.adj'
c opening file to read '33.cubes2570.adj'
c found 'p cnf 6160 1595470' header
c parsed 1595470 clauses in 17.36 seconds process time
c closing file '33.cubes2570.adj'
c after reading 1457566740 bytes 1390.0 MB
c 
c --- [ options ] ------------------------------------------------------------
c 
c all options are set to their default value
c 
c --- [ solving ] ------------------------------------------------------------
c 
c time measured in process time since initialization
c 
c  seconds    reductions  redundant   irredundant
c          MB     restarts       trail       variables
c            level   conflicts       glue         remaining
c 
c * 17.36 1379  0 0   0    0    0  0% 0 1595422 2397 39%
c { 18.60 1435  0 0   0    0    0  0% 0 1595422 2397 39%
c i 21.69 1503 585 0   7   55   48 34% 10 1595422 2396 39%
c i 23.08 1514 389 0  18   94   80 31% 19 1595422 2374 39%
c i 24.93 1518 258 0  34  166  146 30% 25 1595422 2372 39%
c i 25.29 1520 244 0  38  181  160 29% 27 1595422 2371 38%
c i 25.41 1521 240 0  40  185  163 29% 27 1595422 2370 38%
c i 25.81 1521 202 0  44  223  192 28% 25 1595422 2369 38%
c i 25.84 1521 200 0  44  225  193 28% 25 1595422 2368 38%
c i 25.84 1521 198 0  44  228  194 28% 25 1595422 2367 38%
c i 26.05 1522 191 0  47  241  206 28% 26 1595422 2366 38%
c i 26.10 1522 189 0  48  243  207 28% 26 1595422 2365 38%
c i 26.64 1522 177 0  56  271  234 28% 30 1595422 2364 38%
c - 31.24 1466 170 1  63  300  260 28% 29 305596 2364 38%
c i 32.18 1407 145 1  72  399  338 28% 29 305596 2363 38%
c i 33.07 1407 121 1  90  532  426 27% 29 305596 2362 38%
c i 33.17 1407 117 1  90  559  451 27% 29 305596 2361 38%
c i 33.24 1407 112 1  90  589  474 27% 28 305596 2360 38%
c i 33.26 1407 111 1  90  595  479 28% 28 305596 2359 38%
c i 33.67 1407 111 1 100  640  518 28% 30 305596 2358 38%
c 
c  seconds     reductions  redundant   irredundant
c          MB      restarts       trail       variables
c             level   conflicts       glue         remaining
c 
c i 33.98 1407 110 1 106  665  541 28% 30 305596 2357 38%
c i 34.01 1407 109 1 108  675  548 28% 30 305596 2356 38%
c i 34.11 1407 110 1 110  696  563 28% 30 305596 2355 38%
c i 34.19 1407 112 1 112  711  577 28% 31 305596 2354 38%
c i 34.28 1408 113 1 115  722  584 28% 32 305596 2353 38%
c i 35.15 1408 109 1 130  806  654 28% 32 305596 2352 38%
c i 35.21 1408 109 1 131  815  661 28% 32 305596 2351 38%
c i 35.50 1408 102 1 135  910  737 28% 31 305596 2350 38%
c } 35.58 1408 96 1 135 1005  810 28% 31 305596 2350 38%
c [ 35.58 1408  0 1 135 1005  810  0% 0 305596 2350 38%
c O 35.59 1408  1 1 135 1006  811 13% 1 305596 2350 38%
c i 36.08 1408 25 1 135 1167  927 30% 21 305596 2349 38%
c - 36.61 1550 25 2 135 1192  826 30% 21 305551 2349 38%
c i 36.79 1550 27 2 135 1225  848 30% 22 305551 2348 38%
c i 36.84 1550 27 2 135 1283  889 30% 22 305551 2347 38%
c i 36.85 1550 26 2 135 1288  891 30% 21 305551 2346 38%
c i 36.98 1550 26 2 135 1363  935 30% 21 305551 2345 38%
c i 37.07 1550 25 2 135 1432  980 31% 21 305551 2344 38%
c i 37.14 1550 25 2 135 1504 1018 31% 20 305551 2343 38%
c i 37.15 1550 25 2 135 1511 1023 31% 20 305551 2342 38%
c 
c  seconds    reductions  redundant   irredundant
c          MB     restarts       trail       variables
c            level   conflicts       glue         remaining
c 
c i 37.21 1550 24 2 135 1590 1067 31% 20 305551 2341 38%
c i 37.29 1550 24 2 135 1731 1154 31% 20 305551 2340 38%
c i 37.29 1550 23 2 135 1732 1154 31% 20 305551 2339 38%
c - 38.39 1547 26 3 136 2531 1209 31% 22 305521 2339 38%
c i 38.73 1547 26 3 136 2550 1223 45% 23 305521 2338 38%
c i 38.85 1547 26 3 136 2620 1271 48% 23 305521 2337 38%
c i 38.90 1547 27 3 136 2695 1325 49% 23 305521 2336 38%
c i 38.90 1547 27 3 136 2705 1331 49% 23 305521 2335 38%
c i 38.93 1547 27 3 136 2761 1370 48% 24 305521 2334 38%
c ] 39.11 1547 28 3 136 3007 1519 49% 24 305521 2334 38%
c { 39.11 1547 96 3 136 3007 1519 73% 31 305521 2334 38%
c F 39.24 1547 96 3 136 3008 1520 73% 31 305521 2334 38%
c i 39.48 1547 92 3 136 3063 1570 72% 30 305521 2333 38%
c i 39.67 1547 88 3 136 3144 1609 70% 29 305521 2332 38%
c i 39.80 1547 84 3 136 3208 1653 69% 28 305521 2331 38%
c i 40.24 1547 74 3 136 3463 1843 65% 27 305521 2330 38%
c i 40.43 1547 69 3 136 3602 1936 64% 26 305521 2329 38%
c i 40.79 1547 63 3 137 3859 2126 62% 25 305521 2328 38%
c - 41.52 1411 56 4 137 4314 1820 60% 24 305488 2328 38%
c i 42.22 1411 53 4 137 4555 2004 58% 23 305488 2327 38%
c 
c  seconds    reductions  redundant   irredundant
c          MB     restarts       trail       variables
c            level   conflicts       glue         remaining
c 
c i 42.68 1411 52 4 139 4728 2127 58% 23 305488 2326 38%
c i 43.06 1411 51 4 155 4850 2214 57% 24 305488 2325 38%
c d 43.95 1411 51 4 167 5002 2325 57% 23 242859 2315 38%
c 2 44.01 1411 51 4 167 5002 3476 57% 23 242847 2315 38%
c p 48.11 1411 51 4 167 5002 6591 57% 23 242847 2247 36%
c d 48.52 1411 51 4 167 5002 6507 57% 23 242228 2246 36%
c # 50.11 1411 45 4 193 6012 7241 55% 22 242228 2246 36%
c - 50.79 1413 42 5 194 6542 2650 54% 22 242228 2246 36%
c } 51.05 1413 40 5 194 7007 3017 54% 21 242228 2246 36%
c [ 51.05 1413 28 5 194 7007 3017 49% 24 242228 2246 36%
c - 52.13 1413 26 6 195 9033 3058 52% 22 242228 2246 36%
c I 52.70 1413 25 6 196 10013 3729 52% 21 242228 2246 36%
c - 54.99 1413 47 7 198 11940 3497 50% 38 242228 2246 36%
c p 59.50 1413 63 7 199 15003 9986 49% 52 242228 2246 36%
c ] 59.64 1413 63 7 199 15009 9992 49% 52 242228 2246 36%
c { 59.64 1413 40 7 199 15009 9992 54% 21 242228 2246 36%
c B 59.67 1413 40 7 200 15014 9997 54% 21 242228 2246 36%
c - 60.25 1413 40 8 210 15265 4200 54% 21 242228 2246 36%
c s 64.67 1413 35 8 355 18757 6523 53% 21 240606 2246 36%
c v 68.08 1414 35 8 355 18757 6523 53% 21 240596 2246 36%
c 
c  seconds    reductions   redundant   irredundant
c          MB     restarts        trail       variables
c            level    conflicts       glue         remaining
c 
c t 68.15 1414 35 8 355 18757 6499 53% 21 240586 2246 36%
c e 68.75 1415 35 8 355 18757 6160 53% 21 237927 946 15%
c s 68.83 1415 35 8 355 18757 6159 53% 21 237491 946 15%
c - 70.53 1415 36 9 394 19002 4251 66% 21 237491 946 15%
c W 77.81 1415 39 9 712 21018 5870 67% 23 237491 946 15%
c - 83.04 1415 39 10 872 23128 5203 67% 23 237491 946 15%
c - 91.22 1415 38 11 1160 27667 6194 67% 23 237491 946 15%
c F 93.03 1415 38 11 1232 28019 6480 67% 23 237491 946 15%
c p 95.80 1415 36 11 1267 30006 9902 68% 23 237491 946 15%
c } 96.45 1415 35 11 1267 31009 10461 68% 22 237491 946 15%
c [ 96.45 1415 63 11 1267 31009 10461 122% 52 237491 946 15%
c - 97.21 1415 58 12 1267 32619 6530 113% 47 237491 946 15%
c B 98.45 1415 48 12 1270 36024 8362 103% 40 237491 946 15%
c - 99.29 1415 48 13 1271 37984 6846 98% 39 237491 946 15%
c - 101.02 1415 46 14 1274 43762 8290 90% 37 237491 946 15%
c W 102.56 1415 46 14 1274 45025 9308 89% 37 237491 946 15%
c - 105.21 1415 44 15 1275 49953 7942 85% 36 237491 946 15%
c p 106.54 1415 44 15 1275 50013 10132 85% 36 237491 946 15%
c s 107.08 1415 43 15 1275 50645 10634 85% 35 236726 946 15%
c v 111.12 1415 43 15 1275 50645 10634 85% 35 236715 946 15%
c 
c  seconds     reductions      redundant   irredundant
c           MB      restarts          trail       variables
c             level      conflicts        glue        remaining
c 
c w 111.32 1415 43 15 1275 50645 10629 85% 35 236715 946 15%
c t 111.32 1415 43 15 1275 50645 10621 85% 35 236714 946 15%
c e 111.84 1415 43 15 1275 50645 10619 85% 35 236710 942 15%
c s 111.96 1415 43 15 1275 50645 10619 85% 35 236216 942 15%
c ] 113.91 1415 41 15 1275 53512 12401 84% 34 236216 942 15%
c 1 113.91 1415 41 15 1275 53512 12401 84% 34 236216 942 15%
c 
c --- [ writing output ] -----------------------------------------------------
c 
c writing simplified CNF to DIMACS file 'simp/33.cubes2570.adj.simp1'
c * 113.91 1415 41 15 1275 53512 12401 84% 34 236216 942 15%
c opening file to write 'simp/33.cubes2570.adj.simp1'
c writing 'p cnf 6160 236216' header
c closing file 'simp/33.cubes2570.adj.simp1'
c after writing 113975143 bytes 108.7 MB
c wrote 236216 clauses in 0.71 seconds process time
c 
c --- [ writing extension ] --------------------------------------------------
c 
c writing extension stack to 'simp/33.cubes2570.adj.ext1'
c opening file to write 'simp/33.cubes2570.adj.ext1'
c closing file 'simp/33.cubes2570.adj.ext1'
c after writing 86313 bytes 0.1 MB
c wrote 3835 witnesses in 0.00 seconds process time
c 
c --- [ result ] -------------------------------------------------------------
c 
s SATISFIABLE
c 
c --- [ run-time profiling ] -------------------------------------------------
c 
c process time taken by individual solving procedures
c (percentage relative to process time for solving)
c 
c        76.95   79.70% search
c        54.28   56.22% unstable
c        20.50   21.24% stable
c        19.60   20.30% simplify
c        17.36   17.98% parse
c         8.28    8.58% probe
c         7.66    7.93% vivify
c         2.09    2.16% elim
c         1.24    1.28% lucky
c         0.92    0.96% walk
c         0.41    0.42% subsume
c         0.14    0.14% ternary
c   =================================
c        96.55   84.24% solve
c 
c last line shows process time for solving
c (percentage relative to total process time)
c 
c --- [ statistics ] ---------------------------------------------------------
c 
c chronological:              9373        17.52 %  of conflicts
c conflicts:                 53512       554.25    per second
c decisions:                145779      1509.91    per second
c eliminated:                 1304        21.17 %  of all variables
c fixed:                       759        12.32 %  of all variables
c learned:                   52428        97.97 %  per conflict
c learned_lits:           10648130       100.00 %  learned literals
c minimized:                     0         0.00 %  learned literals
c shrunken:                6567965        61.68 %  learned literals
c minishrunken:             777768         7.30 %  learned literals
c propagations:            5134513         0.05 M  per second
c reduced:                   27911        52.16 %  per conflict
c rephased:                      9      5945.78    interval
c restarts:                   1275        41.97    interval
c stabilizing:                   3        60.75 %  of conflicts
c substituted:                  11         0.18 %  of all variables
c subsumed:                  17266         0.51 %  of all clauses
c strengthened:               6527         0.19 %  of all clauses
c ternary:                    3239         0.60 %  of resolved
c vivified:                     46         0.00 %  of all clauses
c walked:                        2     26756.00    interval
c weakened:                   3076         3.03    average size
c 
c seconds are measured in process time for solving
c 
c --- [ resources ] ----------------------------------------------------------
c 
c total process time since initialization:       114.62    seconds
c total real time since initialization:          115.60    seconds
c maximum resident set size of process:         1688.32    MB
c 
c --- [ shutting down ] ------------------------------------------------------
c 
c exit 10
WARNING! DIMACS header mismatch: wrong number of variables.
============================[ Problem Statistics ]=============================
|                                                                             |
|  Number of variables:          3251                                         |
|  Number of clauses:          236218                                         |
|  Parse time:                   1.61 s                                       |
|  Simplification time:          0.04 s                                       |
|                                                                             |
============================[ Search Statistics ]====================================================
| Conflicts |          ORIGINAL         |          LEARNT          | Num Sols |      SUBGRAPHS      |
|           |    Vars  Clauses Literals |    Limit  Clauses Lit/Cl |          | Canonical Noncanon. |
=====================================================================================================
|       100 |    3159   236218 24558036 |     2000      100    127 |        0 |        13         0 |
|       250 |    3159   236218 24558036 |     2000      250     97 |        0 |        30         0 |
|       475 |    3159   236218 24558036 |     2000      475    111 |        0 |        35         0 |
|      1222 |    3159   236628 24566016 |     2000     1222     61 |        0 |       249       410 |
|      1782 |    3159   236682 24566869 |     2000     1782     76 |        0 |       263       464 |
|      2792 |    3159   236933 24571630 |     3603     1795     57 |        0 |       335       715 |
|      3962 |    3159   236964 24572287 |     3603     2965     78 |        0 |       350       746 |
|      5806 |    3159   237100 24575541 |     5004     3010     61 |        0 |       402       882 |
|      8466 |    3159   237198 24577591 |     6306     3172     56 |        0 |       458       980 |
|     13304 |    3159   238192 24595589 |     7553     4857     44 |        0 |       721      1974 |
|     19294 |    3159   238416 24599728 |     8783     7077     66 |        0 |       838      2198 |
|     28903 |    3159   239376 24617106 |    11200     7303     52 |        0 |      1105      3158 |
|     42698 |    3159   240197 24633119 |    13610     9308     55 |        0 |      1415      3979 |
|     63592 |    3159   241630 24659632 |    16008    16000     71 |        0 |      1924      5412 |
|     95970 |    3159   244816 24716136 |    20815    12785     49 |        0 |      2720      8598 |
|    140988 |    3159   246045 24742958 |    25613    12601     34 |        0 |      3072      9827 |
|    212048 |    3159   251421 24844599 |    30416    28864     75 |        0 |      4117     15203 |
|    315941 |    3159   256788 24937562 |    37610    32551     63 |        0 |      5795     20570 |
|    482064 |    3159   275122 25217006 |    47220    31484     56 |        0 |     11225     38904 |
|    719652 |    3139   280510 25306494 |    51417    28469     49 |        0 |     14741     54809 |
|   1088534 |    3139   316867 25813410 |    71218    51952     50 |        0 |     25829     91166 |
|   1606707 |    3139   336252 26124649 |    86813    60520     57 |        0 |     32083    110551 |
|   2413283 |    3128   256396 24927898 |   100077    94760     96 |        0 |     52079    168945 |
|   3589457 |    3128   310294 25715301 |   130014   102871     65 |        0 |     70778    222845 |
|   5370756 |    3059   232137 19188468 |   158714   136010     66 |        0 |    103527    320733 |
=====================================================================================================
Number of solutions   : 0
Canonical subgraphs   : 104659         (15 /sec)
          order  3    : 1              (250000 /sec)
          order  4    : 1              (500000 /sec)
          order  5    : 1              (250000 /sec)
          order  6    : 1              (47619 /sec)
          order  7    : 1              (7874 /sec)
          order  8    : 2              (1255 /sec)
          order  9    : 7              (326 /sec)
          order 10    : 22             (79 /sec)
          order 11    : 111            (26 /sec)
          order 12    : 628            (9 /sec)
          order 13    : 3829           (12 /sec)
          order 14    : 8571           (25 /sec)
          order 15    : 33506          (18 /sec)
          order 16    : 45254          (14 /sec)
          order 17    : 9897           (13 /sec)
          order 18    : 1558           (10 /sec)
          order 19    : 1158           (9 /sec)
          order 20    : 69             (10 /sec)
          order 21    : 42             (9 /sec)
          order 22    : 0              (-nan /sec)
Noncanonical subgraphs: 322983         (291 /sec)
          order  3    : 0              (-nan /sec)
          order  4    : 0              (-nan /sec)
          order  5    : 0              (-nan /sec)
          order  6    : 0              (-nan /sec)
          order  7    : 0              (-nan /sec)
          order  8    : 0              (-nan /sec)
          order  9    : 0              (-nan /sec)
          order 10    : 0              (-nan /sec)
          order 11    : 0              (-nan /sec)
          order 12    : 0              (-nan /sec)
          order 13    : 8319           (6192 /sec)
          order 14    : 97355          (709 /sec)
          order 15    : 61366          (1035 /sec)
          order 16    : 85108          (519 /sec)
          order 17    : 69812          (97 /sec)
          order 18    : 979            (47 /sec)
          order 19    : 0              (-nan /sec)
          order 20    : 0              (-nan /sec)
          order 21    : 0              (-nan /sec)
Canonicity checking   : 6846.83 s
Noncanonicity checking: 1108.59 s
Total canonicity time : 7955.42 s
database reductions   : 132
restarts              : 8624
conflicts             : 5491887        (521 /sec)
decisions             : 7034631        (0.00 % random) (667 /sec)
propagations          : 255227581      (24216 /sec)
conflict literals     : 586711104      (54.93 % deleted)
actual reward         : 0.269236
Memory used           : 397.00 MB
CPU time              : 10539.5 s

UNSATISFIABLE
